%chk=temp.chk
#rhf/3-21g nosymm force

name

0 1
