%mem=8000mb
 %nproc=12
 #rhf/3-21g nosymm force

name

0 1
   6    0.59729280    0.45144710   -0.20168752
   1    0.75928249    1.41510248    0.25154563
   1    0.39843362    0.58346018   -1.26023956
   1    1.51842825   -0.12780808   -0.14785233
   6   -0.58381223   -0.41405773    0.31999718
   1   -0.35626862   -1.30291134   -0.26149506
   1   -0.80113614   -0.44964554    1.40668920
   1   -1.53306617   -0.15545707   -0.10696754
 
