%chk = min1008.chk
# opt freq hf/6-31g

Ethane Optimization

0 1
      6        0.75469700        0.03503800       -0.15373800
      1        1.33620700       -0.01845100        0.75969600
      1        1.00209000        0.96273000       -0.65729000
      1        1.05545300       -0.78676700       -0.79370600
      6       -0.75490800       -0.03500400        0.15373800
      1       -1.05538100        0.78594900        0.79493100
      1       -1.33645800        0.01999900       -0.75958100
      1       -1.00254500       -0.96336400        0.65594000








