%chk = sad1006.chk
# opt(qst3) freq hf/6-31g

Ethane Optimization

0 1
      6        0.77641377       -0.04679603       -0.01738269
      1        1.15485686       -0.59185282        0.83874864
      1        1.22351053        0.93961629       -0.00333966
      1        1.12377590       -0.55302031       -0.90987664
      6       -0.77677879        0.04471823        0.01597101
      1       -1.10402971        1.07678832        0.04498001
      1       -1.21907876       -0.41642163       -0.85880542
      1       -1.17951478       -0.45290305        0.88969675
