%chk = sad1005.chk
# opt(qst3) freq hf/6-31g

Ethane Optimization

0 1
      6        0.77666798        0.01620834        0.04131927
      1        1.16545504       -0.90986061        0.44722483
      1        1.11461492        0.82297341        0.68039453
      1        1.22273597        0.16070520       -0.93504748
      6       -0.77674861       -0.01644262       -0.04359013
      1       -1.11863925        0.07983194       -1.06679451
      1       -1.17001212       -0.94638397        0.34895377
      1       -1.21491892        0.79309730        0.52753071
